set C := 1 2 3 4 5 6 7 8 9 10;

param q :=
    1 19.61
    2 24.33
    3 23.01
    4 30.87
    5 22.75
    6 48.02
    7 22.65
    8 34.98
    9 22.45
    10 41.37;
param ca :=
    1 246.91
    2 170.94
    3 178.23
    4 186.89
    5 171.02
    6 170.04
    7 216.97
    8 150.44
    9 174.85
    10 154.27;
param cc :=
    1 37.65
    2 36.54
    3 49.57
    4 30.18
    5 35.66
    6 34.61
    7 43.18
    8 45.84
    9 42.04
    10 43.45;
param cp :=
    1 8.31
    2 9.89
    3 10.81
    4 7.49
    5 7.03
    6 10.77
    7 9.92
    8 7.14
    9 5.25
    10 5.19;
param sMin := 0;
param sMax := 80;

namespace t0
{
    set A := 2;
    set AAnt := 1;
    set P := 3 4 5 6 7 8 9 10;
    set S := 1;

    param p :=
        1 1.0000000000;
    param d :=
        1 24.95;
    param h := 1;
    param s0 := 20;
}

namespace t1
{
    set AAnt := 2;
    set P := 3 4 5 6 7 8 9 10;
    set PAnt := 3 4 5 6 7 8 9 10;
    set S := 1 2 3;

    param p :=
        1 0.1187393637
        2 0.7667597090
        3 0.1145009273;
    param d :=
        1 18.88
        2 37.85
        3 42.29;
    param h := 1;
}

namespace t2
{
    set A2Ant := 2;
    set P := 3 4 5 6 7 8 9 10;
    set PAnt := 3 4 5 6 7 8 9 10;
    set S := 1 2 3;

    param p :=
        1 0.1546890825
        2 0.4564752564
        3 0.3888356611;
    param d :=
        1 39.36
        2 24.79
        3 28.94;
    param h := 1;
}

namespace t3
{
    set P := 3 4 5 6 7 8 9 10;
    set PAnt := 3 4 5 6 7 8 9 10;
    set S := 1 2 3;

    param p :=
        1 0.0373940411
        2 0.1884305650
        3 0.7741753939;
    param d :=
        1 16.36
        2 48.89
        3 45.37;
    param h := 1;
}

namespace t4
{
    set PAnt := 3 4 5 6 7 8 9 10;
    set S := 1 2 3;

    param p :=
        1 0.4579168166
        2 0.2624709526
        3 0.2796122309;
    param d :=
        1 47.40
        2 43.07
        3 27.22;
    param h := 1;
}
